param n := 2;

param m := 2;

param K := 50;

param a :=
1 	 0.019880
2 	 0.026211
;
 param A :=
[1, *, *]:  1	2	:=
1	-0.943387	0.720056	
2	-0.507578	0.077662	

[2, *, *]:  1	2	:=
1	0.105644	-0.751653	
2	0.684062	-0.441633	
;